g3 2 1 0	# problem inst_sans_ref
 59 200 1 0 49	# vars, constraints, objectives, ranges, eqns
 49 1	# nonlinear constraints, objectives
 0 0	# network constraints: nonlinear, linear
 10 10 10	# nonlinear vars in constraints, objectives, both
 0 0 0 1	# linear network variables; functions; arith, flags
 0 0 0 0 0	# discrete variables: binary, integer, nonlinear (b,c,o)
 609 59	# nonzeros in Jacobian, gradients
 0 0	# max name lengths: constraints, variables
 0 0 0 0 0	# common exprs: b,c,o,c1,o1
b
0 0 1
0 0 1
0 0 1
0 0 1
0 0 1
0 0 1
0 0 1
0 0 1
0 0 1
0 0 1
0 0 1
0 0 1
0 0 1
0 0 1
0 0 1
0 0 1
0 0 1
0 0 1
0 0 1
0 0 1
0 0 1
0 0 1
0 0 1
0 0 1
0 0 1
0 0 1
0 0 1
0 0 1
0 0 1
0 0 1
0 0 1
0 0 1
0 0 1
0 0 1
0 0 1
0 0 1
0 0 1
0 0 1
0 0 1
0 0 1
0 0 1
0 0 1
0 0 1
0 0 1
0 0 1
0 0 1
0 0 1
0 0 1
0 0 1
0 0 1
0 0 1
0 0 1
0 0 1
0 0 1
0 0 1
0 0 1
0 0 1
0 0 1
0 0 1
r
4 0
4 0
4 0
4 0
4 0
4 0
4 0
4 0
4 0
4 0
4 0
4 0
4 0
4 0
4 0
4 0
4 0
4 0
4 0
4 0
4 0
4 0
4 0
4 0
4 0
4 0
4 0
4 0
4 0
4 0
4 0
4 0
4 0
4 0
4 0
4 0
4 0
4 0
4 0
4 0
4 0
4 0
4 0
4 0
4 0
4 0
4 0
4 0
4 0
1 7.89
1 3.76
1 4.71
1 18.18
1 0
1 0
1 0
1 0
1 0
1 0
1 0
1 0
1 0
1 0
1 0
1 0
1 0
1 0
1 0
1 0
1 0
1 0
1 0
1 0
1 0
1 0
1 0
1 0
1 0
1 0
1 0
1 0
1 0
1 0
1 0
1 0
1 0
1 0
1 0
1 0
1 0
1 0
1 0
1 0
1 0
1 0
1 0
1 0
1 0
1 0
1 0
1 0
1 0
1 0
1 0
1 0
1 0
1 0
1 0
1 0
1 0
1 0
1 0
1 0
1 0
1 0
1 0
1 0
1 0
1 0
1 0
1 0
1 0
1 0
1 0
1 0
1 0
1 0
1 0
1 0
1 0
1 0
1 0
1 0
1 0
1 0
1 0
1 0
1 0
1 0
1 0
1 0
2 -1
2 -1
2 -1
2 -1
2 -1
2 -1
2 -1
2 -1
2 -1
2 -1
2 -1
2 -1
2 -1
2 -1
2 -1
2 -1
2 -1
2 -1
2 -1
2 -1
2 -1
2 -1
2 -1
2 -1
2 -1
2 -1
2 -1
2 -1
2 -1
2 -1
2 -1
2 -1
2 -1
2 -1
2 -1
2 -1
2 -1
2 -1
2 -1
2 -1
2 -1
2 -1
2 -1
2 -1
2 -1
2 -1
2 -1
2 -1
2 -1
2 0
2 0
2 0
2 0
2 0
2 0
2 0
2 0
2 0
2 0
C0
o16
o2
v0
v0
C1
o16
o2
v0
v1
C2
o16
o2
v0
v2
C3
o16
o2
v0
v3
C4
o16
o2
v0
v4
C5
o16
o2
v0
v5
C6
o16
o2
v0
v6
C7
o16
o2
v0
v7
C8
o16
o2
v0
v8
C9
o16
o2
v0
v9
C10
o16
o2
v1
v1
C11
o16
o2
v1
v2
C12
o16
o2
v1
v3
C13
o16
o2
v1
v5
C14
o16
o2
v1
v6
C15
o16
o2
v1
v7
C16
o16
o2
v1
v8
C17
o16
o2
v1
v9
C18
o16
o2
v2
v2
C19
o16
o2
v2
v3
C20
o16
o2
v2
v4
C21
o16
o2
v2
v5
C22
o16
o2
v2
v6
C23
o16
o2
v2
v7
C24
o16
o2
v2
v8
C25
o16
o2
v2
v9
C26
o16
o2
v3
v3
C27
o16
o2
v3
v5
C28
o16
o2
v3
v6
C29
o16
o2
v3
v7
C30
o16
o2
v3
v8
C31
o16
o2
v3
v9
C32
o16
o2
v4
v4
C33
o16
o2
v4
v5
C34
o16
o2
v4
v6
C35
o16
o2
v4
v7
C36
o16
o2
v4
v8
C37
o16
o2
v4
v9
C38
o16
o2
v5
v5
C39
o16
o2
v5
v7
C40
o16
o2
v5
v8
C41
o16
o2
v6
v6
C42
o16
o2
v6
v7
C43
o16
o2
v6
v8
C44
o16
o2
v6
v9
C45
o16
o2
v7
v7
C46
o16
o2
v7
v9
C47
o16
o2
v8
v8
C48
o16
o2
v9
v9
C49
n0
C50
n0
C51
n0
C52
n0
C53
n0
C54
n0
C55
n0
C56
n0
C57
n0
C58
n0
C59
n0
C60
n0
C61
n0
C62
n0
C63
n0
C64
n0
C65
n0
C66
n0
C67
n0
C68
n0
C69
n0
C70
n0
C71
n0
C72
n0
C73
n0
C74
n0
C75
n0
C76
n0
C77
n0
C78
n0
C79
n0
C80
n0
C81
n0
C82
n0
C83
n0
C84
n0
C85
n0
C86
n0
C87
n0
C88
n0
C89
n0
C90
n0
C91
n0
C92
n0
C93
n0
C94
n0
C95
n0
C96
n0
C97
n0
C98
n0
C99
n0
C100
n0
C101
n0
C102
n0
C103
n0
C104
n0
C105
n0
C106
n0
C107
n0
C108
n0
C109
n0
C110
n0
C111
n0
C112
n0
C113
n0
C114
n0
C115
n0
C116
n0
C117
n0
C118
n0
C119
n0
C120
n0
C121
n0
C122
n0
C123
n0
C124
n0
C125
n0
C126
n0
C127
n0
C128
n0
C129
n0
C130
n0
C131
n0
C132
n0
C133
n0
C134
n0
C135
n0
C136
n0
C137
n0
C138
n0
C139
n0
C140
n0
C141
n0
C142
n0
C143
n0
C144
n0
C145
n0
C146
n0
C147
n0
C148
n0
C149
n0
C150
n0
C151
n0
C152
n0
C153
n0
C154
n0
C155
n0
C156
n0
C157
n0
C158
n0
C159
n0
C160
n0
C161
n0
C162
n0
C163
n0
C164
n0
C165
n0
C166
n0
C167
n0
C168
n0
C169
n0
C170
n0
C171
n0
C172
n0
C173
n0
C174
n0
C175
n0
C176
n0
C177
n0
C178
n0
C179
n0
C180
n0
C181
n0
C182
n0
C183
n0
C184
n0
C185
n0
C186
n0
C187
n0
C188
n0
C189
n0
C190
n0
C191
n0
C192
n0
C193
n0
C194
n0
C195
n0
C196
n0
C197
n0
C198
n0
C199
n0
O0 0
o54
88
o2
o2
n3.089052
v0
v0
o2
o2
n0.112439
v0
v1
o2
o2
n-0.219189
v0
v2
o2
o2
n-0.044856
v0
v3
o2
o2
n0.01301
v0
v4
o2
o2
n0.541909
v0
v5
o2
o2
n0.320176
v0
v6
o2
o2
n0.613398
v0
v7
o2
o2
n0.560644
v0
v8
o2
o2
n0.673226
v0
v9
o2
o2
n0.112439
v1
v0
o2
o2
n0.109403
v1
v1
o2
o2
n-0.039963
v1
v2
o2
o2
n-0.064167
v1
v3
o2
o2
n0.015519
v1
v5
o2
o2
n-0.013896
v1
v6
o2
o2
n0.014337
v1
v7
o2
o2
n0.08399
v1
v8
o2
o2
n-0.129806
v1
v9
o2
o2
n-0.219189
v2
v0
o2
o2
n-0.039963
v2
v1
o2
o2
n0.810107
v2
v2
o2
o2
n0.074046
v2
v3
o2
o2
n-0.475821
v2
v4
o2
o2
n0.352465
v2
v5
o2
o2
n0.175115
v2
v6
o2
o2
n-0.078403
v2
v7
o2
o2
n-0.685845
v2
v8
o2
o2
n0.009927
v2
v9
o2
o2
n-0.044856
v3
v0
o2
o2
n-0.064167
v3
v1
o2
o2
n0.074046
v3
v2
o2
o2
n0.637881
v3
v3
o2
o2
n-0.484978
v3
v5
o2
o2
n0.210312
v3
v6
o2
o2
n0.13085
v3
v7
o2
o2
n-0.267586
v3
v8
o2
o2
n0.359757
v3
v9
o2
o2
n0.01301
v4
v0
o2
o2
n-0.475821
v4
v2
o2
o2
n2.013498
v4
v4
o2
o2
n-0.728033
v4
v5
o2
o2
n-0.113359
v4
v6
o2
o2
n-0.702481
v4
v7
o2
o2
n0.479124
v4
v8
o2
o2
n0.969586
v4
v9
o2
o2
n0.541909
v5
v0
o2
o2
n0.015519
v5
v1
o2
o2
n0.352465
v5
v2
o2
o2
n-0.484978
v5
v3
o2
o2
n-0.728033
v5
v4
o2
o2
n1.346637
v5
v5
o2
o2
n0.092692
v5
v7
o2
o2
n-0.02863
v5
v8
o2
o2
n0.320176
v6
v0
o2
o2
n-0.013896
v6
v1
o2
o2
n0.175115
v6
v2
o2
o2
n0.210312
v6
v3
o2
o2
n-0.113359
v6
v4
o2
o2
n0.186239
v6
v6
o2
o2
n0.019942
v6
v7
o2
o2
n-0.140433
v6
v8
o2
o2
n0.120082
v6
v9
o2
o2
n0.613398
v7
v0
o2
o2
n0.014337
v7
v1
o2
o2
n-0.078403
v7
v2
o2
o2
n0.13085
v7
v3
o2
o2
n-0.702481
v7
v4
o2
o2
n0.092692
v7
v5
o2
o2
n0.019942
v7
v6
o2
o2
n0.787359
v7
v7
o2
o2
n-0.07979
v7
v9
o2
o2
n0.560644
v8
v0
o2
o2
n0.08399
v8
v1
o2
o2
n-0.685845
v8
v2
o2
o2
n-0.267586
v8
v3
o2
o2
n0.479124
v8
v4
o2
o2
n-0.02863
v8
v5
o2
o2
n-0.140433
v8
v6
o2
o2
n0.725883
v8
v8
o2
o2
n0.673226
v9
v0
o2
o2
n-0.129806
v9
v1
o2
o2
n0.009927
v9
v2
o2
o2
n0.359757
v9
v3
o2
o2
n0.969586
v9
v4
o2
o2
n0.120082
v9
v6
o2
o2
n-0.07979
v9
v7
o2
o2
n1.441378
v9
v9
k58
34
66
101
133
162
191
223
255
284
313
317
321
325
329
333
341
349
357
365
373
377
381
385
393
401
409
417
425
429
433
437
445
453
461
469
477
481
489
497
505
513
521
525
533
541
549
557
565
569
573
577
581
585
589
593
597
601
605
J0 2
0 0
10 1
J1 3
0 0
1 0
11 1
J2 3
0 0
2 0
12 1
J3 3
0 0
3 0
13 1
J4 3
0 0
4 0
14 1
J5 3
0 0
5 0
15 1
J6 3
0 0
6 0
16 1
J7 3
0 0
7 0
17 1
J8 3
0 0
8 0
18 1
J9 3
0 0
9 0
19 1
J10 2
1 0
20 1
J11 3
1 0
2 0
21 1
J12 3
1 0
3 0
22 1
J13 3
1 0
5 0
23 1
J14 3
1 0
6 0
24 1
J15 3
1 0
7 0
25 1
J16 3
1 0
8 0
26 1
J17 3
1 0
9 0
27 1
J18 2
2 0
28 1
J19 3
2 0
3 0
29 1
J20 3
2 0
4 0
30 1
J21 3
2 0
5 0
31 1
J22 3
2 0
6 0
32 1
J23 3
2 0
7 0
33 1
J24 3
2 0
8 0
34 1
J25 3
2 0
9 0
35 1
J26 2
3 0
36 1
J27 3
3 0
5 0
37 1
J28 3
3 0
6 0
38 1
J29 3
3 0
7 0
39 1
J30 3
3 0
8 0
40 1
J31 3
3 0
9 0
41 1
J32 2
4 0
42 1
J33 3
4 0
5 0
43 1
J34 3
4 0
6 0
44 1
J35 3
4 0
7 0
45 1
J36 3
4 0
8 0
46 1
J37 3
4 0
9 0
47 1
J38 2
5 0
48 1
J39 3
5 0
7 0
49 1
J40 3
5 0
8 0
50 1
J41 2
6 0
51 1
J42 3
6 0
7 0
52 1
J43 3
6 0
8 0
53 1
J44 3
6 0
9 0
54 1
J45 2
7 0
55 1
J46 3
7 0
9 0
56 1
J47 2
8 0
57 1
J48 2
9 0
58 1
J49 34
1 -0.13
2 0.09
3 -0.15
4 -0.02
5 0.29
6 -0.06
7 0.61
8 -0.29
9 0.23
15 1.78
16 1.71
17 -1.15
18 1.2
19 -1.66
23 1.05
24 -1.42
25 -1.66
26 1.25
27 -0.41
31 1.16
32 0.82
33 -0.54
34 0.46
35 -1.63
37 1.52
38 -1.79
39 0.88
40 0.09
41 0.28
43 1.37
44 0.26
45 -0.35
46 1.99
47 1.19
J50 35
0 0.55
1 0.01
2 -0.52
3 0.26
4 0.21
5 -0.75
6 0.93
7 0.88
8 0.35
9 0.67
15 1.48
16 1.84
17 1.43
18 -1.04
19 -1.11
23 -1.62
24 1.26
25 -1.52
26 -0.93
27 -1.6
31 -0.48
32 -1.84
33 1.76
34 -0.57
35 -1.99
37 -0.1
38 -1.7
39 -1.07
40 1.7
41 1.98
43 1.85
44 -1.99
45 0.22
46 1.32
47 -1.02
J51 35
0 0.39
1 0.3
2 0.74
3 -0.16
4 -0.9
5 -0.3
6 0.08
7 -0.76
8 0.98
9 -0.03
15 -1.27
16 1.76
17 0.16
18 0.69
19 -0.04
23 0.6
24 -1.31
25 1.18
26 1.39
27 0.14
31 -1.42
32 0.17
33 -1.47
34 1.27
35 -1.79
37 0.01
38 -0.29
39 0.01
40 -1.22
41 -1.45
43 0.14
44 -0.67
45 -0.2
46 -0.51
47 1.71
J52 35
0 -0.5
1 -0.23
2 0.24
3 -0.21
4 0.73
5 0.16
6 0.05
7 0.45
8 0.79
9 0.82
15 -0.07
16 -1.51
17 0.28
18 -0.7
19 -0.42
23 -0.66
24 -0.68
25 -1.57
26 1.77
27 -1.75
31 -1.35
32 -1.67
33 1.77
34 -1.7
35 1.64
37 1.67
38 1.85
39 -0.78
40 1.55
41 1.9
43 1.2
44 -1.02
45 -0.83
46 1.33
47 -1.85
J53 2
0 -1
10 1
J54 2
0 -1
11 1
J55 2
0 -1
12 1
J56 2
0 -1
13 1
J57 2
0 -1
14 1
J58 2
0 -1
15 1
J59 2
0 -1
16 1
J60 2
0 -1
17 1
J61 2
0 -1
18 1
J62 2
0 -1
19 1
J63 2
1 -1
20 1
J64 2
1 -1
21 1
J65 2
1 -1
22 1
J66 2
1 -1
23 1
J67 2
1 -1
24 1
J68 2
1 -1
25 1
J69 2
1 -1
26 1
J70 2
1 -1
27 1
J71 2
2 -1
28 1
J72 2
2 -1
29 1
J73 2
2 -1
30 1
J74 2
2 -1
31 1
J75 2
2 -1
32 1
J76 2
2 -1
33 1
J77 2
2 -1
34 1
J78 2
2 -1
35 1
J79 2
3 -1
36 1
J80 2
3 -1
37 1
J81 2
3 -1
38 1
J82 2
3 -1
39 1
J83 2
3 -1
40 1
J84 2
3 -1
41 1
J85 2
4 -1
42 1
J86 2
4 -1
43 1
J87 2
4 -1
44 1
J88 2
4 -1
45 1
J89 2
4 -1
46 1
J90 2
4 -1
47 1
J91 2
5 -1
48 1
J92 2
5 -1
49 1
J93 2
5 -1
50 1
J94 2
6 -1
51 1
J95 2
6 -1
52 1
J96 2
6 -1
53 1
J97 2
6 -1
54 1
J98 2
7 -1
55 1
J99 2
7 -1
56 1
J100 2
8 -1
57 1
J101 2
9 -1
58 1
J102 2
1 -1
11 1
J103 2
2 -1
12 1
J104 2
3 -1
13 1
J105 2
4 -1
14 1
J106 2
5 -1
15 1
J107 2
6 -1
16 1
J108 2
7 -1
17 1
J109 2
8 -1
18 1
J110 2
9 -1
19 1
J111 2
2 -1
21 1
J112 2
3 -1
22 1
J113 2
5 -1
23 1
J114 2
6 -1
24 1
J115 2
7 -1
25 1
J116 2
8 -1
26 1
J117 2
9 -1
27 1
J118 2
3 -1
29 1
J119 2
4 -1
30 1
J120 2
5 -1
31 1
J121 2
6 -1
32 1
J122 2
7 -1
33 1
J123 2
8 -1
34 1
J124 2
9 -1
35 1
J125 2
5 -1
37 1
J126 2
6 -1
38 1
J127 2
7 -1
39 1
J128 2
8 -1
40 1
J129 2
9 -1
41 1
J130 2
5 -1
43 1
J131 2
6 -1
44 1
J132 2
7 -1
45 1
J133 2
8 -1
46 1
J134 2
9 -1
47 1
J135 2
7 -1
49 1
J136 2
8 -1
50 1
J137 2
7 -1
52 1
J138 2
8 -1
53 1
J139 2
9 -1
54 1
J140 2
9 -1
56 1
J141 2
0 -2
10 1
J142 3
0 -1
1 -1
11 1
J143 3
0 -1
2 -1
12 1
J144 3
0 -1
3 -1
13 1
J145 3
0 -1
4 -1
14 1
J146 3
0 -1
5 -1
15 1
J147 3
0 -1
6 -1
16 1
J148 3
0 -1
7 -1
17 1
J149 3
0 -1
8 -1
18 1
J150 3
0 -1
9 -1
19 1
J151 2
1 -2
20 1
J152 3
1 -1
2 -1
21 1
J153 3
1 -1
3 -1
22 1
J154 3
1 -1
5 -1
23 1
J155 3
1 -1
6 -1
24 1
J156 3
1 -1
7 -1
25 1
J157 3
1 -1
8 -1
26 1
J158 3
1 -1
9 -1
27 1
J159 2
2 -2
28 1
J160 3
2 -1
3 -1
29 1
J161 3
2 -1
4 -1
30 1
J162 3
2 -1
5 -1
31 1
J163 3
2 -1
6 -1
32 1
J164 3
2 -1
7 -1
33 1
J165 3
2 -1
8 -1
34 1
J166 3
2 -1
9 -1
35 1
J167 2
3 -2
36 1
J168 3
3 -1
5 -1
37 1
J169 3
3 -1
6 -1
38 1
J170 3
3 -1
7 -1
39 1
J171 3
3 -1
8 -1
40 1
J172 3
3 -1
9 -1
41 1
J173 2
4 -2
42 1
J174 3
4 -1
5 -1
43 1
J175 3
4 -1
6 -1
44 1
J176 3
4 -1
7 -1
45 1
J177 3
4 -1
8 -1
46 1
J178 3
4 -1
9 -1
47 1
J179 2
5 -2
48 1
J180 3
5 -1
7 -1
49 1
J181 3
5 -1
8 -1
50 1
J182 2
6 -2
51 1
J183 3
6 -1
7 -1
52 1
J184 3
6 -1
8 -1
53 1
J185 3
6 -1
9 -1
54 1
J186 2
7 -2
55 1
J187 3
7 -1
9 -1
56 1
J188 2
8 -2
57 1
J189 2
9 -2
58 1
J190 2
0 -1
10 1
J191 2
1 -1
20 1
J192 2
2 -1
28 1
J193 2
3 -1
36 1
J194 2
4 -1
42 1
J195 2
5 -1
48 1
J196 2
6 -1
51 1
J197 2
7 -1
55 1
J198 2
8 -1
57 1
J199 2
9 -1
58 1
G0 59
0 0.41
1 -0.15
2 0.05
3 0.01
4 -0.56
5 -0.05
6 -0.78
7 -0.48
8 0.36
9 -0.19
10 -3.089052
11 -0.224879
12 0.438378
13 0.089712
14 -0.026021
15 -0.063818
16 -0.000352
17 0.013205
18 0.548712
19 0.033548
20 -0.109403
21 0.079926
22 0.128334
23 0.048962
24 -0.382207
25 0.641326
26 0.952021
27 -0.770387
28 -0.810107
29 -0.148092
30 0.951641
31 0.615069
32 0.60977
33 -0.053194
34 -0.60831
35 0.060145
36 -0.637881
37 -4.3e-05
38 0.889376
39 -0.4417
40 -0.804828
41 1.190487
42 -2.013498
43 -0.143934
44 -0.143281
45 -0.145037
46 0.591752
47 0.030828
48 -1.346637
49 -0.185384
50 0.05726
51 -0.186239
52 -0.039884
53 0.280866
54 -0.240165
55 -0.787359
56 0.15958
57 -0.725883
58 -1.441378
